 Minimize
[ 1.0000000000000000 Z0 * Z107  ]
Subject to
c1: [ -2.2799999999999998 Z0 * Z73 -2.2799999999999998 Z0 * Z76 -1.6799999999999999 Z0 * Z80 -1.6799999999999999 Z0 * Z82 -2.2799999999999998 Z0 * Z85  + 1.0000000000000000 Z0 * Z107  ] = 0.000000
c2: [ -1.0000000000000000 Z0 * Z17  + 1.0000000000000000 Z0 * Z18 -1.0000000000000000 Z0 * Z67  ] = 0.000000
c3: [ -1.0000000000000000 Z0 * Z6  + 1.0000000000000000 Z0 * Z7 -1.0000000000000000 Z0 * Z68  ] = 0.000000
c4: [ -1.0000000000000000 Z0 * Z23  + 1.0000000000000000 Z0 * Z24 -1.0000000000000000 Z0 * Z69  ] = 0.000000
c5: [ -1.0000000000000000 Z0 * Z10 -1.0000000000000000 Z0 * Z11  + 1.0000000000000000 Z0 * Z12  + 1.0000000000000000 Z0 * Z13 -1.0000000000000000 Z0 * Z70  ] = 0.000000
c6: [ -1.0000000000000000 Z0 * Z20 -1.0000000000000000 Z0 * Z71  ] = 0.000000
c7: [ -1.0000000000000000 Z0 * Z3 -1.0000000000000000 Z0 * Z4  + 1.0000000000000000 Z0 * Z5 -1.0000000000000000 Z0 * Z72  ] = 0.000000
c8: [ -1.0000000000000000 Z0 * Z1 -1.0000000000000000 Z0 * Z2  + 1.0000000000000000 Z0 * Z3  + 1.0000000000000000 Z0 * Z4 -1.0000000000000000 Z0 * Z73  ] = 0.000000
c9: [ -1.0000000000000000 Z0 * Z7  + 1.0000000000000000 Z0 * Z8 -1.0000000000000000 Z0 * Z74  ] = 0.000000
c10: [ -1.0000000000000000 Z0 * Z12 -1.0000000000000000 Z0 * Z13  + 1.0000000000000000 Z0 * Z14  + 1.0000000000000000 Z0 * Z15 -1.0000000000000000 Z0 * Z75  ] = 0.000000
c11: [ 1.0000000000000000 Z0 * Z6 -1.0000000000000000 Z0 * Z76  ] = 0.000000
c12: [ -1.0000000000000000 Z0 * Z19  + 1.0000000000000000 Z0 * Z20 -1.0000000000000000 Z0 * Z77  ] = 0.000000
c13: [ -1.0000000000000000 Z0 * Z16  + 1.0000000000000000 Z0 * Z17 -1.0000000000000000 Z0 * Z78  ] = 0.000000
c14: [ -1.0000000000000000 Z0 * Z24 -1.0000000000000000 Z0 * Z79  ] = 0.000000
c15: [ -1.0000000000000000 Z0 * Z9 -1.0000000000000000 Z0 * Z18  + 1.0000000000000000 Z0 * Z19 -1.0000000000000000 Z0 * Z80  ] = 0.000000
c16: [ -1.0000000000000000 Z0 * Z22  + 1.0000000000000000 Z0 * Z23 -1.0000000000000000 Z0 * Z81  ] = 0.000000
c17: [ 1.0000000000000000 Z0 * Z10  + 1.0000000000000000 Z0 * Z11 -1.0000000000000000 Z0 * Z82  ] = 0.000000
c18: [ -1.0000000000000000 Z0 * Z21  + 1.0000000000000000 Z0 * Z22 -1.0000000000000000 Z0 * Z83  ] = 0.000000
c19: [ -1.0000000000000000 Z0 * Z14 -1.0000000000000000 Z0 * Z15  + 1.0000000000000000 Z0 * Z16  + 1.0000000000000000 Z0 * Z21 -1.0000000000000000 Z0 * Z84  ] = 0.000000
c20: [ 1.0000000000000000 Z0 * Z1  + 1.0000000000000000 Z0 * Z2 -1.0000000000000000 Z0 * Z85  ] = 0.000000
c21: [ -1.0000000000000000 Z0 * Z5 -1.0000000000000000 Z0 * Z8  + 1.0000000000000000 Z0 * Z9 -1.0000000000000000 Z0 * Z86  ] = 0.000000
c22: [ 8.9907627963986503 Z0 * Z93 -8.9907627963986503 Z0 * Z105  + 1.0000000000000000 Z25 * Z108  ] = 0.000000
c23: [ 8.9907627963986503 Z0 * Z93 -8.9907627963986503 Z0 * Z105  + 1.0000000000000000 Z26 * Z109  ] = 0.000000
c24: [ 5.9938418642657698 Z0 * Z92 -5.9938418642657698 Z0 * Z93  + 1.0000000000000000 Z27 * Z110  ] = 0.000000
c25: [ 5.9938418642657698 Z0 * Z92 -5.9938418642657698 Z0 * Z93  + 1.0000000000000000 Z28 * Z111  ] = 0.000000
c26: [ -1.3831942763690199 Z0 * Z92  + 1.3831942763690199 Z0 * Z106  + 1.0000000000000000 Z29 * Z112  ] = 0.000000
c27: [ 0.0993769948466698 Z0 * Z88 -0.0993769948466698 Z0 * Z96  + 1.0000000000000000 Z30 * Z113  ] = 0.000000
c28: [ -0.1473520958071310 Z0 * Z88  + 0.1473520958071310 Z0 * Z94  + 1.0000000000000000 Z31 * Z114  ] = 0.000000
c29: [ -0.2249058304424630 Z0 * Z94  + 0.2249058304424630 Z0 * Z106  + 1.0000000000000000 Z32 * Z115  ] = 0.000000
c30: [ 0.6538736579199020 Z0 * Z100 -0.6538736579199020 Z0 * Z106  + 1.0000000000000000 Z33 * Z116  ] = 0.000000
c31: [ -1.7981525592797301 Z0 * Z90  + 1.7981525592797301 Z0 * Z95  + 1.0000000000000000 Z34 * Z117  ] = 0.000000
c32: [ -0.0265962529480588 Z0 * Z90  + 0.0265962529480588 Z0 * Z95  + 1.0000000000000000 Z35 * Z118  ] = 0.000000
c33: [ -1.4385220474237801 Z0 * Z95  + 1.4385220474237801 Z0 * Z104  + 1.0000000000000000 Z36 * Z119  ] = 0.000000
c34: [ -0.0212770023584470 Z0 * Z95  + 0.0212770023584470 Z0 * Z104  + 1.0000000000000000 Z37 * Z120  ] = 0.000000
c35: [ 0.8562631234665380 Z0 * Z98 -0.8562631234665380 Z0 * Z104  + 1.0000000000000000 Z38 * Z121  ] = 0.000000
c36: [ 0.8990762796398650 Z0 * Z87 -0.8990762796398650 Z0 * Z98  + 1.0000000000000000 Z39 * Z122  ] = 0.000000
c37: [ -7.1926102371189202 Z0 * Z87  + 7.1926102371189202 Z0 * Z100  + 1.0000000000000000 Z40 * Z123  ] = 0.000000
c38: [ 3.5963051185594601 Z0 * Z97 -3.5963051185594601 Z0 * Z100  + 1.0000000000000000 Z41 * Z124  ] = 0.000000
c39: [ 1.4385220474237801 Z0 * Z91 -1.4385220474237801 Z0 * Z97  + 1.0000000000000000 Z42 * Z125  ] = 0.000000
c40: [ 0.0509935163731392 Z0 * Z103 -0.0509935163731392 Z0 * Z104  + 1.0000000000000000 Z43 * Z126  ] = 0.000000
c41: [ 0.0016882734118691 Z0 * Z89 -0.0016882734118691 Z0 * Z101  + 1.0000000000000000 Z44 * Z127  ] = 0.000000
c42: [ -0.0275751323938619 Z0 * Z89  + 0.0275751323938619 Z0 * Z99  + 1.0000000000000000 Z45 * Z128  ] = 0.000000
c43: [ 7.1926102371189202 Z0 * Z90 -7.1926102371189202 Z0 * Z102 -1.0000000000000000 Z10 * Z10  ] >= 0.000000
c44: [ 0.1063850117922350 Z0 * Z90 -0.1063850117922350 Z0 * Z102 -1.0000000000000000 Z11 * Z11  ] >= 0.000000
c45: [ 0.0063634920908912 Z0 * Z101 -0.0063634920908912 Z0 * Z103 -1.0000000000000000 Z22 * Z22  ] >= 0.000000
c46: [ 1.0000000000000000 Z0 * Z25 -2.0000000000000000 Z0 * Z46  ] = -1.000000
c47: [ 1.0000000000000000 Z0 * Z26 -2.0000000000000000 Z0 * Z47  ] = -1.000000
c48: [ 1.0000000000000000 Z0 * Z27 -2.0000000000000000 Z0 * Z48  ] = -1.000000
c49: [ 1.0000000000000000 Z0 * Z28 -2.0000000000000000 Z0 * Z49  ] = -1.000000
c50: [ 1.0000000000000000 Z0 * Z29 -2.0000000000000000 Z0 * Z50  ] = -1.000000
c51: [ 1.0000000000000000 Z0 * Z30 -2.0000000000000000 Z0 * Z51  ] = -1.000000
c52: [ 1.0000000000000000 Z0 * Z31 -2.0000000000000000 Z0 * Z52  ] = -1.000000
c53: [ 1.0000000000000000 Z0 * Z32 -2.0000000000000000 Z0 * Z53  ] = -1.000000
c54: [ 1.0000000000000000 Z0 * Z33 -2.0000000000000000 Z0 * Z54  ] = -1.000000
c55: [ 1.0000000000000000 Z0 * Z34 -2.0000000000000000 Z0 * Z55  ] = -1.000000
c56: [ 1.0000000000000000 Z0 * Z35 -2.0000000000000000 Z0 * Z56  ] = -1.000000
c57: [ 1.0000000000000000 Z0 * Z36 -2.0000000000000000 Z0 * Z57  ] = -1.000000
c58: [ 1.0000000000000000 Z0 * Z37 -2.0000000000000000 Z0 * Z58  ] = -1.000000
c59: [ 1.0000000000000000 Z0 * Z38 -2.0000000000000000 Z0 * Z59  ] = -1.000000
c60: [ 1.0000000000000000 Z0 * Z39 -2.0000000000000000 Z0 * Z60  ] = -1.000000
c61: [ 1.0000000000000000 Z0 * Z40 -2.0000000000000000 Z0 * Z61  ] = -1.000000
c62: [ 1.0000000000000000 Z0 * Z41 -2.0000000000000000 Z0 * Z62  ] = -1.000000
c63: [ 1.0000000000000000 Z0 * Z42 -2.0000000000000000 Z0 * Z63  ] = -1.000000
c64: [ 1.0000000000000000 Z0 * Z43 -2.0000000000000000 Z0 * Z64  ] = -1.000000
c65: [ 1.0000000000000000 Z0 * Z44 -2.0000000000000000 Z0 * Z65  ] = -1.000000
c66: [ 1.0000000000000000 Z0 * Z45 -2.0000000000000000 Z0 * Z66  ] = -1.000000
c67: [ -5929.0000000000000000 Z0 * Z46 -1.0000000000000000 Z0 * Z93  + 1.0000000000000000 Z0 * Z105  ] >= -5929.000000
c68: [ -5929.0000000000000000 Z0 * Z47 -1.0000000000000000 Z0 * Z93  + 1.0000000000000000 Z0 * Z105  ] >= -5929.000000
c69: [ -6400.0000000000000000 Z0 * Z48 -1.0000000000000000 Z0 * Z92  + 1.0000000000000000 Z0 * Z93  ] >= -6400.000000
c70: [ -6400.0000000000000000 Z0 * Z49 -1.0000000000000000 Z0 * Z92  + 1.0000000000000000 Z0 * Z93  ] >= -6400.000000
c71: [ -5500.0000000000000000 Z0 * Z50  + 1.0000000000000000 Z0 * Z92 -1.0000000000000000 Z0 * Z106  ] >= -5500.000000
c72: [ -6400.0000000000000000 Z0 * Z51 -1.0000000000000000 Z0 * Z88  + 1.0000000000000000 Z0 * Z96  ] >= -6400.000000
c73: [ -5500.0000000000000000 Z0 * Z52  + 1.0000000000000000 Z0 * Z88 -1.0000000000000000 Z0 * Z94  ] >= -5500.000000
c74: [ -5500.0000000000000000 Z0 * Z53  + 1.0000000000000000 Z0 * Z94 -1.0000000000000000 Z0 * Z106  ] >= -5500.000000
c75: [ -4382.4399999999995998 Z0 * Z54 -1.0000000000000000 Z0 * Z100  + 1.0000000000000000 Z0 * Z106  ] >= -4382.440000
c76: [ -4382.4399999999995998 Z0 * Z55  + 1.0000000000000000 Z0 * Z90 -1.0000000000000000 Z0 * Z95  ] >= -4382.440000
c77: [ -4382.4399999999995998 Z0 * Z56  + 1.0000000000000000 Z0 * Z90 -1.0000000000000000 Z0 * Z95  ] >= -4382.440000
c78: [ -3482.4400000000000546 Z0 * Z57  + 1.0000000000000000 Z0 * Z95 -1.0000000000000000 Z0 * Z104  ] >= -3482.440000
c79: [ -3482.4400000000000546 Z0 * Z58  + 1.0000000000000000 Z0 * Z95 -1.0000000000000000 Z0 * Z104  ] >= -3482.440000
c80: [ -4382.4399999999995998 Z0 * Z59 -1.0000000000000000 Z0 * Z98  + 1.0000000000000000 Z0 * Z104  ] >= -4382.440000
c81: [ -4382.4399999999995998 Z0 * Z60 -1.0000000000000000 Z0 * Z87  + 1.0000000000000000 Z0 * Z98  ] >= -4382.440000
c82: [ -4382.4399999999995998 Z0 * Z61  + 1.0000000000000000 Z0 * Z87 -1.0000000000000000 Z0 * Z100  ] >= -4382.440000
c83: [ -4382.4399999999995998 Z0 * Z62 -1.0000000000000000 Z0 * Z97  + 1.0000000000000000 Z0 * Z100  ] >= -4382.440000
c84: [ -4382.4399999999995998 Z0 * Z63 -1.0000000000000000 Z0 * Z91  + 1.0000000000000000 Z0 * Z97  ] >= -4382.440000
c85: [ -4382.4399999999995998 Z0 * Z64 -1.0000000000000000 Z0 * Z103  + 1.0000000000000000 Z0 * Z104  ] >= -4382.440000
c86: [ -4382.4399999999995998 Z0 * Z65 -1.0000000000000000 Z0 * Z89  + 1.0000000000000000 Z0 * Z101  ] >= -4382.440000
c87: [ -4382.4399999999995998 Z0 * Z66  + 1.0000000000000000 Z0 * Z89 -1.0000000000000000 Z0 * Z99  ] >= -4382.440000
c88: [ -5929.0000000000000000 Z0 * Z46 -1.0000000000000000 Z0 * Z93  + 1.0000000000000000 Z0 * Z105  ] <= 0.000000
c89: [ -5929.0000000000000000 Z0 * Z47 -1.0000000000000000 Z0 * Z93  + 1.0000000000000000 Z0 * Z105  ] <= 0.000000
c90: [ -5029.0000000000000000 Z0 * Z48 -1.0000000000000000 Z0 * Z92  + 1.0000000000000000 Z0 * Z93  ] <= 0.000000
c91: [ -5029.0000000000000000 Z0 * Z49 -1.0000000000000000 Z0 * Z92  + 1.0000000000000000 Z0 * Z93  ] <= 0.000000
c92: [ -6400.0000000000000000 Z0 * Z50  + 1.0000000000000000 Z0 * Z92 -1.0000000000000000 Z0 * Z106  ] <= 0.000000
c93: [ -5029.0000000000000000 Z0 * Z51 -1.0000000000000000 Z0 * Z88  + 1.0000000000000000 Z0 * Z96  ] <= 0.000000
c94: [ -5500.0000000000000000 Z0 * Z52  + 1.0000000000000000 Z0 * Z88 -1.0000000000000000 Z0 * Z94  ] <= 0.000000
c95: [ -6400.0000000000000000 Z0 * Z53  + 1.0000000000000000 Z0 * Z94 -1.0000000000000000 Z0 * Z106  ] <= 0.000000
c96: [ -6400.0000000000000000 Z0 * Z54 -1.0000000000000000 Z0 * Z100  + 1.0000000000000000 Z0 * Z106  ] <= 0.000000
c97: [ -3482.4400000000000546 Z0 * Z55  + 1.0000000000000000 Z0 * Z90 -1.0000000000000000 Z0 * Z95  ] <= 0.000000
c98: [ -3482.4400000000000546 Z0 * Z56  + 1.0000000000000000 Z0 * Z90 -1.0000000000000000 Z0 * Z95  ] <= 0.000000
c99: [ -4382.4399999999995998 Z0 * Z57  + 1.0000000000000000 Z0 * Z95 -1.0000000000000000 Z0 * Z104  ] <= 0.000000
c100: [ -4382.4399999999995998 Z0 * Z58  + 1.0000000000000000 Z0 * Z95 -1.0000000000000000 Z0 * Z104  ] <= 0.000000
c101: [ -4382.4399999999995998 Z0 * Z59 -1.0000000000000000 Z0 * Z98  + 1.0000000000000000 Z0 * Z104  ] <= 0.000000
c102: [ -4382.4399999999995998 Z0 * Z60 -1.0000000000000000 Z0 * Z87  + 1.0000000000000000 Z0 * Z98  ] <= 0.000000
c103: [ -4382.4399999999995998 Z0 * Z61  + 1.0000000000000000 Z0 * Z87 -1.0000000000000000 Z0 * Z100  ] <= 0.000000
c104: [ -4382.4399999999995998 Z0 * Z62 -1.0000000000000000 Z0 * Z97  + 1.0000000000000000 Z0 * Z100  ] <= 0.000000
c105: [ -1882.4400000000000546 Z0 * Z63 -1.0000000000000000 Z0 * Z91  + 1.0000000000000000 Z0 * Z97  ] <= 0.000000
c106: [ -4382.4399999999995998 Z0 * Z64 -1.0000000000000000 Z0 * Z103  + 1.0000000000000000 Z0 * Z104  ] <= 0.000000
c107: [ -3969.0000000000000000 Z0 * Z65 -1.0000000000000000 Z0 * Z89  + 1.0000000000000000 Z0 * Z101  ] <= 0.000000
c108: [ -3757.4400000000000546 Z0 * Z66  + 1.0000000000000000 Z0 * Z89 -1.0000000000000000 Z0 * Z99  ] <= 0.000000
c109: [ 1.0000000000000000 Z0 * Z1 -230.8814254543829918 Z0 * Z46  ] >= -230.881425
c110: [ 1.0000000000000000 Z0 * Z2 -230.8814254543829918 Z0 * Z47  ] >= -230.881425
c111: [ 1.0000000000000000 Z0 * Z3 -195.8585916708809975 Z0 * Z48  ] >= -195.858592
c112: [ 1.0000000000000000 Z0 * Z4 -195.8585916708809975 Z0 * Z49  ] >= -195.858592
c113: [ 1.0000000000000000 Z0 * Z5 -87.2213765084547958 Z0 * Z50  ] >= -87.221377
c114: [ 1.0000000000000000 Z0 * Z6 -25.2192935471770987 Z0 * Z51  ] >= -25.219294
c115: [ 1.0000000000000000 Z0 * Z7 -28.4681669051455017 Z0 * Z52  ] >= -28.468167
c116: [ 1.0000000000000000 Z0 * Z8 -35.1707558553060977 Z0 * Z53  ] >= -35.170756
c117: [ 1.0000000000000000 Z0 * Z9 -53.5309450076728979 Z0 * Z54  ] >= -53.530945
c118: [ 1.0000000000000000 Z0 * Z12 -88.7710296317997063 Z0 * Z55  ] >= -88.771030
c119: [ 1.0000000000000000 Z0 * Z13 -10.7961327691766993 Z0 * Z56  ] >= -10.796133
c120: [ 1.0000000000000000 Z0 * Z14 -70.7782927092090972 Z0 * Z57  ] >= -70.778293
c121: [ 1.0000000000000000 Z0 * Z15 -8.6078966125965000 Z0 * Z58  ] >= -8.607897
c122: [ 1.0000000000000000 Z0 * Z16 -61.2578302162646011 Z0 * Z59  ] >= -61.257830
c123: [ 1.0000000000000000 Z0 * Z17 -62.7705970255574996 Z0 * Z60  ] >= -62.770597
c124: [ 1.0000000000000000 Z0 * Z18 -177.5420592635989863 Z0 * Z61  ] >= -177.542059
c125: [ 1.0000000000000000 Z0 * Z19 -125.5411940511149993 Z0 * Z62  ] >= -125.541194
c126: [ 1.0000000000000000 Z0 * Z20 -79.3992226757409014 Z0 * Z63  ] >= -79.399223
c127: [ 1.0000000000000000 Z0 * Z21 -14.9491145521833992 Z0 * Z64  ] >= -14.949115
c128: [ 1.0000000000000000 Z0 * Z23 -2.7200656115453499 Z0 * Z65  ] >= -2.720066
c129: [ 1.0000000000000000 Z0 * Z24 -10.9930142912741005 Z0 * Z66  ] >= -10.993014
c130: [ 1.0000000000000000 Z0 * Z1 -230.8814254543829918 Z0 * Z46  ] <= 0.000000
c131: [ 1.0000000000000000 Z0 * Z2 -230.8814254543829918 Z0 * Z47  ] <= 0.000000
c132: [ 1.0000000000000000 Z0 * Z3 -173.6174839565200045 Z0 * Z48  ] <= 0.000000
c133: [ 1.0000000000000000 Z0 * Z4 -173.6174839565200045 Z0 * Z49  ] <= 0.000000
c134: [ 1.0000000000000000 Z0 * Z5 -94.0874240733677993 Z0 * Z50  ] <= 0.000000
c135: [ 1.0000000000000000 Z0 * Z6 -22.3554670513479010 Z0 * Z51  ] <= 0.000000
c136: [ 1.0000000000000000 Z0 * Z7 -28.4681669051455017 Z0 * Z52  ] <= 0.000000
c137: [ 1.0000000000000000 Z0 * Z8 -37.9393900166010027 Z0 * Z53  ] <= 0.000000
c138: [ 1.0000000000000000 Z0 * Z9 -64.6899637554958957 Z0 * Z54  ] <= 0.000000
c139: [ 1.0000000000000000 Z0 * Z12 -79.1325369145847048 Z0 * Z55  ] <= 0.000000
c140: [ 1.0000000000000000 Z0 * Z13 -9.6239209845279792 Z0 * Z56  ] <= 0.000000
c141: [ 1.0000000000000000 Z0 * Z14 -79.3992226757409014 Z0 * Z57  ] <= 0.000000
c142: [ 1.0000000000000000 Z0 * Z15 -9.6563547063968507 Z0 * Z58  ] <= 0.000000
c143: [ 1.0000000000000000 Z0 * Z16 -61.2578302162646011 Z0 * Z59  ] <= 0.000000
c144: [ 1.0000000000000000 Z0 * Z17 -62.7705970255574996 Z0 * Z60  ] <= 0.000000
c145: [ 1.0000000000000000 Z0 * Z18 -177.5420592635989863 Z0 * Z61  ] <= 0.000000
c146: [ 1.0000000000000000 Z0 * Z19 -125.5411940511149993 Z0 * Z62  ] <= 0.000000
c147: [ 1.0000000000000000 Z0 * Z20 -52.0377886055166030 Z0 * Z63  ] <= 0.000000
c148: [ 1.0000000000000000 Z0 * Z21 -14.9491145521833992 Z0 * Z64  ] <= 0.000000
c149: [ 1.0000000000000000 Z0 * Z23 -2.5885820774525299 Z0 * Z65  ] <= 0.000000
c150: [ 1.0000000000000000 Z0 * Z24 -10.1789933422708003 Z0 * Z66  ] <= 0.000000
ac1: Z0 - 1 = 0
ac2: [ 1.0000000000000000 Z0 * Z108 -1.0000000000000000 Z1 * Z1  ] = 0
ac3: [ 1.0000000000000000 Z0 * Z109 -1.0000000000000000 Z2 * Z2  ] = 0
ac4: [ 1.0000000000000000 Z0 * Z110 -1.0000000000000000 Z3 * Z3  ] = 0
ac5: [ 1.0000000000000000 Z0 * Z111 -1.0000000000000000 Z4 * Z4  ] = 0
ac6: [ 1.0000000000000000 Z0 * Z112 -1.0000000000000000 Z5 * Z5  ] = 0
ac7: [ 1.0000000000000000 Z0 * Z113 -1.0000000000000000 Z6 * Z6  ] = 0
ac8: [ 1.0000000000000000 Z0 * Z114 -1.0000000000000000 Z7 * Z7  ] = 0
ac9: [ 1.0000000000000000 Z0 * Z115 -1.0000000000000000 Z8 * Z8  ] = 0
ac10: [ 1.0000000000000000 Z0 * Z116 -1.0000000000000000 Z9 * Z9  ] = 0
ac11: [ 1.0000000000000000 Z0 * Z117 -1.0000000000000000 Z12 * Z12  ] = 0
ac12: [ 1.0000000000000000 Z0 * Z118 -1.0000000000000000 Z13 * Z13  ] = 0
ac13: [ 1.0000000000000000 Z0 * Z119 -1.0000000000000000 Z14 * Z14  ] = 0
ac14: [ 1.0000000000000000 Z0 * Z120 -1.0000000000000000 Z15 * Z15  ] = 0
ac15: [ 1.0000000000000000 Z0 * Z121 -1.0000000000000000 Z16 * Z16  ] = 0
ac16: [ 1.0000000000000000 Z0 * Z122 -1.0000000000000000 Z17 * Z17  ] = 0
ac17: [ 1.0000000000000000 Z0 * Z123 -1.0000000000000000 Z18 * Z18  ] = 0
ac18: [ 1.0000000000000000 Z0 * Z124 -1.0000000000000000 Z19 * Z19  ] = 0
ac19: [ 1.0000000000000000 Z0 * Z125 -1.0000000000000000 Z20 * Z20  ] = 0
ac20: [ 1.0000000000000000 Z0 * Z126 -1.0000000000000000 Z21 * Z21  ] = 0
ac21: [ 1.0000000000000000 Z0 * Z127 -1.0000000000000000 Z23 * Z23  ] = 0
ac22: [ 1.0000000000000000 Z0 * Z128 -1.0000000000000000 Z24 * Z24  ] = 0
Bounds
1 <= Z0 <= 1
-100000000.0000000000000000 <= Z1 <= 100000000.0000000000000000
-100000000.0000000000000000 <= Z2 <= 100000000.0000000000000000
-100000000.0000000000000000 <= Z3 <= 100000000.0000000000000000
-100000000.0000000000000000 <= Z4 <= 100000000.0000000000000000
-100000000.0000000000000000 <= Z5 <= 100000000.0000000000000000
-100000000.0000000000000000 <= Z6 <= 100000000.0000000000000000
-100000000.0000000000000000 <= Z7 <= 100000000.0000000000000000
-100000000.0000000000000000 <= Z8 <= 100000000.0000000000000000
-100000000.0000000000000000 <= Z9 <= 100000000.0000000000000000
0.0000000000000000 <= Z10 <= 100000000.0000000000000000
0.0000000000000000 <= Z11 <= 100000000.0000000000000000
-100000000.0000000000000000 <= Z12 <= 100000000.0000000000000000
-100000000.0000000000000000 <= Z13 <= 100000000.0000000000000000
-100000000.0000000000000000 <= Z14 <= 100000000.0000000000000000
-100000000.0000000000000000 <= Z15 <= 100000000.0000000000000000
-100000000.0000000000000000 <= Z16 <= 100000000.0000000000000000
-100000000.0000000000000000 <= Z17 <= 100000000.0000000000000000
-100000000.0000000000000000 <= Z18 <= 100000000.0000000000000000
-100000000.0000000000000000 <= Z19 <= 100000000.0000000000000000
-100000000.0000000000000000 <= Z20 <= 100000000.0000000000000000
-100000000.0000000000000000 <= Z21 <= 100000000.0000000000000000
0.0000000000000000 <= Z22 <= 100000000.0000000000000000
-100000000.0000000000000000 <= Z23 <= 100000000.0000000000000000
-100000000.0000000000000000 <= Z24 <= 100000000.0000000000000000
-100000000.0000000000000000 <= Z25 <= 100000000.0000000000000000
-100000000.0000000000000000 <= Z26 <= 100000000.0000000000000000
-100000000.0000000000000000 <= Z27 <= 100000000.0000000000000000
-100000000.0000000000000000 <= Z28 <= 100000000.0000000000000000
-100000000.0000000000000000 <= Z29 <= 100000000.0000000000000000
-100000000.0000000000000000 <= Z30 <= 100000000.0000000000000000
-100000000.0000000000000000 <= Z31 <= 100000000.0000000000000000
-100000000.0000000000000000 <= Z32 <= 100000000.0000000000000000
-100000000.0000000000000000 <= Z33 <= 100000000.0000000000000000
-100000000.0000000000000000 <= Z34 <= 100000000.0000000000000000
-100000000.0000000000000000 <= Z35 <= 100000000.0000000000000000
-100000000.0000000000000000 <= Z36 <= 100000000.0000000000000000
-100000000.0000000000000000 <= Z37 <= 100000000.0000000000000000
-100000000.0000000000000000 <= Z38 <= 100000000.0000000000000000
-100000000.0000000000000000 <= Z39 <= 100000000.0000000000000000
-100000000.0000000000000000 <= Z40 <= 100000000.0000000000000000
-100000000.0000000000000000 <= Z41 <= 100000000.0000000000000000
-100000000.0000000000000000 <= Z42 <= 100000000.0000000000000000
-100000000.0000000000000000 <= Z43 <= 100000000.0000000000000000
-100000000.0000000000000000 <= Z44 <= 100000000.0000000000000000
-100000000.0000000000000000 <= Z45 <= 100000000.0000000000000000
0.0000000000000000 <= Z46 <= 1.0000000000000000
0.0000000000000000 <= Z47 <= 1.0000000000000000
0.0000000000000000 <= Z48 <= 1.0000000000000000
0.0000000000000000 <= Z49 <= 1.0000000000000000
0.0000000000000000 <= Z50 <= 1.0000000000000000
0.0000000000000000 <= Z51 <= 1.0000000000000000
0.0000000000000000 <= Z52 <= 1.0000000000000000
0.0000000000000000 <= Z53 <= 1.0000000000000000
0.0000000000000000 <= Z54 <= 1.0000000000000000
0.0000000000000000 <= Z55 <= 1.0000000000000000
0.0000000000000000 <= Z56 <= 1.0000000000000000
0.0000000000000000 <= Z57 <= 1.0000000000000000
0.0000000000000000 <= Z58 <= 1.0000000000000000
0.0000000000000000 <= Z59 <= 1.0000000000000000
0.0000000000000000 <= Z60 <= 1.0000000000000000
0.0000000000000000 <= Z61 <= 1.0000000000000000
0.0000000000000000 <= Z62 <= 1.0000000000000000
0.0000000000000000 <= Z63 <= 1.0000000000000000
0.0000000000000000 <= Z64 <= 1.0000000000000000
0.0000000000000000 <= Z65 <= 1.0000000000000000
0.0000000000000000 <= Z66 <= 1.0000000000000000
0.0000000000000000 <= Z67 <= 1.2000000000000000
-100000000.0000000000000000 <= Z68 <= -4.0339999999999998
-100000000.0000000000000000 <= Z69 <= -0.2220000000000000
0.0000000000000000 <= Z70 <= 0.0000000000000000
-100000000.0000000000000000 <= Z71 <= -15.6159999999999997
-100000000.0000000000000000 <= Z72 <= -3.9180000000000001
0.0000000000000000 <= Z73 <= 8.4000000000000004
-100000000.0000000000000000 <= Z74 <= -5.2560000000000002
-100000000.0000000000000000 <= Z75 <= -6.3849999999999998
0.0000000000000000 <= Z76 <= 4.7999999999999998
-100000000.0000000000000000 <= Z77 <= -6.8479999999999999
-100000000.0000000000000000 <= Z78 <= -2.1200000000000001
-100000000.0000000000000000 <= Z79 <= -1.9190000000000000
0.0000000000000000 <= Z80 <= 0.9600000000000000
0.0000000000000000 <= Z81 <= 0.0000000000000000
20.3440000000000012 <= Z82 <= 22.0120000000000005
0.0000000000000000 <= Z83 <= 0.0000000000000000
0.0000000000000000 <= Z84 <= 0.0000000000000000
8.8699999999999992 <= Z85 <= 11.5939999999999994
0.0000000000000000 <= Z86 <= 0.0000000000000000
0.0000000000000000 <= Z87 <= 4382.4399999999995998
900.0000000000000000 <= Z88 <= 6400.0000000000000000
0.0000000000000000 <= Z89 <= 4382.4399999999995998
0.0000000000000000 <= Z90 <= 4382.4399999999995998
2500.0000000000000000 <= Z91 <= 4382.4399999999995998
900.0000000000000000 <= Z92 <= 6400.0000000000000000
0.0000000000000000 <= Z93 <= 5929.0000000000000000
900.0000000000000000 <= Z94 <= 6400.0000000000000000
900.0000000000000000 <= Z95 <= 4382.4399999999995998
0.0000000000000000 <= Z96 <= 5929.0000000000000000
0.0000000000000000 <= Z97 <= 4382.4399999999995998
0.0000000000000000 <= Z98 <= 4382.4399999999995998
625.0000000000000000 <= Z99 <= 4382.4399999999995998
0.0000000000000000 <= Z100 <= 4382.4399999999995998
0.0000000000000000 <= Z101 <= 3969.0000000000000000
2500.0000000000000000 <= Z102 <= 4382.4399999999995998
0.0000000000000000 <= Z103 <= 4382.4399999999995998
0.0000000000000000 <= Z104 <= 4382.4399999999995998
0.0000000000000000 <= Z105 <= 5929.0000000000000000
0.0000000000000000 <= Z106 <= 6400.0000000000000000
-100000000.0000000000000000 <= Z107 <= 100000000.0000000000000000
-10000000000000000.0000000000000000 <= Z108 <= 10000000000000000.0000000000000000
-10000000000000000.0000000000000000 <= Z109 <= 10000000000000000.0000000000000000
-10000000000000000.0000000000000000 <= Z110 <= 10000000000000000.0000000000000000
-10000000000000000.0000000000000000 <= Z111 <= 10000000000000000.0000000000000000
-10000000000000000.0000000000000000 <= Z112 <= 10000000000000000.0000000000000000
-10000000000000000.0000000000000000 <= Z113 <= 10000000000000000.0000000000000000
-10000000000000000.0000000000000000 <= Z114 <= 10000000000000000.0000000000000000
-10000000000000000.0000000000000000 <= Z115 <= 10000000000000000.0000000000000000
-10000000000000000.0000000000000000 <= Z116 <= 10000000000000000.0000000000000000
-10000000000000000.0000000000000000 <= Z117 <= 10000000000000000.0000000000000000
-10000000000000000.0000000000000000 <= Z118 <= 10000000000000000.0000000000000000
-10000000000000000.0000000000000000 <= Z119 <= 10000000000000000.0000000000000000
-10000000000000000.0000000000000000 <= Z120 <= 10000000000000000.0000000000000000
-10000000000000000.0000000000000000 <= Z121 <= 10000000000000000.0000000000000000
-10000000000000000.0000000000000000 <= Z122 <= 10000000000000000.0000000000000000
-10000000000000000.0000000000000000 <= Z123 <= 10000000000000000.0000000000000000
-10000000000000000.0000000000000000 <= Z124 <= 10000000000000000.0000000000000000
-10000000000000000.0000000000000000 <= Z125 <= 10000000000000000.0000000000000000
-10000000000000000.0000000000000000 <= Z126 <= 10000000000000000.0000000000000000
-10000000000000000.0000000000000000 <= Z127 <= 10000000000000000.0000000000000000
-10000000000000000.0000000000000000 <= Z128 <= 10000000000000000.0000000000000000
Binaries
Z46 Z47 Z48 Z49 Z50 Z51 Z52 Z53 Z54 Z55 Z56 Z57 Z58 Z59 Z60 Z61 Z62 Z63 Z64 Z65 Z66 
End